(set-info :smt-lib-version 2.6)
(set-logic QF_BV)
(set-info :source |
Generated by: Maximilian A. Zinkus
Generated on: 2022-10-12
Generator: MCMPC
Application: Model counting optimization for MPC functionalities
Target solver: CryptoMinisat, Z3
|)
(set-info :license "https://creativecommons.org/licenses/by/4.0/")
(set-info :category "industrial")
(set-info :status unknown)
(declare-fun chosen_0 () Bool)
(declare-fun chosen () (_ BitVec 6))
(declare-fun chosen_1 () Bool)
(declare-fun chosen_2 () Bool)
(declare-fun chosen_3 () Bool)
(declare-fun chosen_4 () Bool)
(declare-fun chosen_5 () Bool)
(declare-fun target_0 () Bool)
(declare-fun target () (_ BitVec 6))
(declare-fun target_1 () Bool)
(declare-fun target_2 () Bool)
(declare-fun target_3 () Bool)
(declare-fun target_4 () Bool)
(declare-fun target_5 () Bool)
(declare-fun target_outcome0_t0 () (_ BitVec 6))
(declare-fun chosen_outcome0 () (_ BitVec 6))
(declare-fun target_outcome1_t0 () (_ BitVec 6))
(declare-fun chosen_outcome1 () (_ BitVec 6))
(declare-fun target_outcome2_t0 () (_ BitVec 6))
(declare-fun chosen_outcome2 () (_ BitVec 6))
(declare-fun target_outcome3_t0 () (_ BitVec 6))
(declare-fun chosen_outcome3 () (_ BitVec 6))
(declare-fun target_outcome4_t0 () (_ BitVec 6))
(declare-fun chosen_outcome4 () (_ BitVec 6))
(declare-fun target_outcome5_t0 () (_ BitVec 6))
(declare-fun chosen_outcome5 () (_ BitVec 6))
(declare-fun target_outcome6_t0 () (_ BitVec 6))
(declare-fun chosen_outcome6 () (_ BitVec 6))
(declare-fun target_outcome7_t0 () (_ BitVec 6))
(declare-fun chosen_outcome7 () (_ BitVec 6))
(declare-fun target_outcome8_t0 () (_ BitVec 6))
(declare-fun chosen_outcome8 () (_ BitVec 6))
(declare-fun target_outcome9_t0 () (_ BitVec 6))
(declare-fun chosen_outcome9 () (_ BitVec 6))
(declare-fun target_outcome10_t0 () (_ BitVec 6))
(declare-fun chosen_outcome10 () (_ BitVec 6))
(declare-fun target_outcome11_t0 () (_ BitVec 6))
(declare-fun chosen_outcome11 () (_ BitVec 6))
(declare-fun target_outcome12_t0 () (_ BitVec 6))
(declare-fun chosen_outcome12 () (_ BitVec 6))
(declare-fun target_outcome13_t0 () (_ BitVec 6))
(declare-fun chosen_outcome13 () (_ BitVec 6))
(declare-fun target_outcome14_t0 () (_ BitVec 6))
(declare-fun chosen_outcome14 () (_ BitVec 6))
(declare-fun target_outcome15_t0 () (_ BitVec 6))
(declare-fun chosen_outcome15 () (_ BitVec 6))
(declare-fun target_outcome16_t0 () (_ BitVec 6))
(declare-fun chosen_outcome16 () (_ BitVec 6))
(declare-fun target_outcome17_t0 () (_ BitVec 6))
(declare-fun chosen_outcome17 () (_ BitVec 6))
(declare-fun target_outcome18_t0 () (_ BitVec 6))
(declare-fun chosen_outcome18 () (_ BitVec 6))
(declare-fun target_outcome19_t0 () (_ BitVec 6))
(declare-fun chosen_outcome19 () (_ BitVec 6))
(declare-fun target_outcome20_t0 () (_ BitVec 6))
(declare-fun chosen_outcome20 () (_ BitVec 6))
(declare-fun target_outcome21_t0 () (_ BitVec 6))
(declare-fun chosen_outcome21 () (_ BitVec 6))
(declare-fun target_outcome22_t0 () (_ BitVec 6))
(declare-fun chosen_outcome22 () (_ BitVec 6))
(declare-fun target_outcome23_t0 () (_ BitVec 6))
(declare-fun chosen_outcome23 () (_ BitVec 6))
(declare-fun target_outcome24_t0 () (_ BitVec 6))
(declare-fun chosen_outcome24 () (_ BitVec 6))
(declare-fun target_outcome25_t0 () (_ BitVec 6))
(declare-fun chosen_outcome25 () (_ BitVec 6))
(declare-fun target_outcome26_t0 () (_ BitVec 6))
(declare-fun chosen_outcome26 () (_ BitVec 6))
(declare-fun target_outcome27_t0 () (_ BitVec 6))
(declare-fun chosen_outcome27 () (_ BitVec 6))
(declare-fun target_outcome28_t0 () (_ BitVec 6))
(declare-fun chosen_outcome28 () (_ BitVec 6))
(declare-fun target_outcome29_t0 () (_ BitVec 6))
(declare-fun chosen_outcome29 () (_ BitVec 6))
(declare-fun target_outcome30_t0 () (_ BitVec 6))
(declare-fun chosen_outcome30 () (_ BitVec 6))
(declare-fun target_outcome31_t0 () (_ BitVec 6))
(declare-fun chosen_outcome31 () (_ BitVec 6))
(declare-fun target_outcome32_t0 () (_ BitVec 6))
(declare-fun chosen_outcome32 () (_ BitVec 6))
(declare-fun target_outcome33_t0 () (_ BitVec 6))
(declare-fun chosen_outcome33 () (_ BitVec 6))
(declare-fun target_outcome34_t0 () (_ BitVec 6))
(declare-fun chosen_outcome34 () (_ BitVec 6))
(declare-fun target_outcome35_t0 () (_ BitVec 6))
(declare-fun chosen_outcome35 () (_ BitVec 6))
(declare-fun target_outcome36_t0 () (_ BitVec 6))
(declare-fun chosen_outcome36 () (_ BitVec 6))
(declare-fun target_outcome37_t0 () (_ BitVec 6))
(declare-fun chosen_outcome37 () (_ BitVec 6))
(declare-fun target_outcome38_t0 () (_ BitVec 6))
(declare-fun chosen_outcome38 () (_ BitVec 6))
(declare-fun target_outcome39_t0 () (_ BitVec 6))
(declare-fun chosen_outcome39 () (_ BitVec 6))
(declare-fun target_outcome40_t0 () (_ BitVec 6))
(declare-fun chosen_outcome40 () (_ BitVec 6))
(declare-fun target_outcome41_t0 () (_ BitVec 6))
(declare-fun chosen_outcome41 () (_ BitVec 6))
(declare-fun target_outcome42_t0 () (_ BitVec 6))
(declare-fun chosen_outcome42 () (_ BitVec 6))
(declare-fun target_outcome43_t0 () (_ BitVec 6))
(declare-fun chosen_outcome43 () (_ BitVec 6))
(declare-fun target_outcome44_t0 () (_ BitVec 6))
(declare-fun chosen_outcome44 () (_ BitVec 6))
(declare-fun target_outcome45_t0 () (_ BitVec 6))
(declare-fun chosen_outcome45 () (_ BitVec 6))
(declare-fun target_outcome46_t0 () (_ BitVec 6))
(declare-fun chosen_outcome46 () (_ BitVec 6))
(declare-fun target_outcome47_t0 () (_ BitVec 6))
(declare-fun chosen_outcome47 () (_ BitVec 6))
(declare-fun target_outcome48_t0 () (_ BitVec 6))
(declare-fun chosen_outcome48 () (_ BitVec 6))
(declare-fun target_outcome49_t0 () (_ BitVec 6))
(declare-fun chosen_outcome49 () (_ BitVec 6))
(declare-fun target_outcome50_t0 () (_ BitVec 6))
(declare-fun chosen_outcome50 () (_ BitVec 6))
(declare-fun target_outcome51_t0 () (_ BitVec 6))
(declare-fun chosen_outcome51 () (_ BitVec 6))
(declare-fun target_outcome52_t0 () (_ BitVec 6))
(declare-fun chosen_outcome52 () (_ BitVec 6))
(declare-fun target_outcome53_t0 () (_ BitVec 6))
(declare-fun chosen_outcome53 () (_ BitVec 6))
(declare-fun target_outcome54_t0 () (_ BitVec 6))
(declare-fun chosen_outcome54 () (_ BitVec 6))
(declare-fun target_outcome55_t0 () (_ BitVec 6))
(declare-fun chosen_outcome55 () (_ BitVec 6))
(declare-fun target_outcome56_t0 () (_ BitVec 6))
(declare-fun chosen_outcome56 () (_ BitVec 6))
(declare-fun target_outcome57_t0 () (_ BitVec 6))
(declare-fun chosen_outcome57 () (_ BitVec 6))
(declare-fun target_outcome58_t0 () (_ BitVec 6))
(declare-fun chosen_outcome58 () (_ BitVec 6))
(declare-fun target_outcome59_t0 () (_ BitVec 6))
(declare-fun chosen_outcome59 () (_ BitVec 6))
(declare-fun target_outcome60_t0 () (_ BitVec 6))
(declare-fun chosen_outcome60 () (_ BitVec 6))
(declare-fun target_outcome61_t0 () (_ BitVec 6))
(declare-fun chosen_outcome61 () (_ BitVec 6))
(declare-fun target_outcome62_t0 () (_ BitVec 6))
(declare-fun chosen_outcome62 () (_ BitVec 6))
(declare-fun target_outcome63_t0 () (_ BitVec 6))
(declare-fun chosen_outcome63 () (_ BitVec 6))
(declare-fun target_bit_48_0_bool () Bool)
(declare-fun target_bit_48_1_bool () Bool)
(declare-fun target_bit_48_2_bool () Bool)
(declare-fun target_bit_48_3_bool () Bool)
(declare-fun target_bit_49_0_bool () Bool)
(declare-fun target_bit_49_1_bool () Bool)
(declare-fun target_bit_49_2_bool () Bool)
(declare-fun target_bit_49_3_bool () Bool)
(declare-fun target_bit_50_0_bool () Bool)
(declare-fun target_bit_50_1_bool () Bool)
(declare-fun target_bit_50_2_bool () Bool)
(declare-fun target_bit_50_3_bool () Bool)
(declare-fun target_bit_51_0_bool () Bool)
(declare-fun target_bit_51_1_bool () Bool)
(declare-fun target_bit_51_2_bool () Bool)
(declare-fun target_bit_51_3_bool () Bool)
(declare-fun target_bit_52_0_bool () Bool)
(declare-fun target_bit_52_1_bool () Bool)
(declare-fun target_bit_52_2_bool () Bool)
(declare-fun target_bit_52_3_bool () Bool)
(declare-fun target_bit_53_0_bool () Bool)
(declare-fun target_bit_53_1_bool () Bool)
(declare-fun target_bit_53_2_bool () Bool)
(declare-fun target_bit_53_3_bool () Bool)
(declare-fun target_bit_54_0_bool () Bool)
(declare-fun target_bit_54_1_bool () Bool)
(declare-fun target_bit_54_2_bool () Bool)
(declare-fun target_bit_54_3_bool () Bool)
(declare-fun target_bit_55_0_bool () Bool)
(declare-fun target_bit_55_1_bool () Bool)
(declare-fun target_bit_55_2_bool () Bool)
(declare-fun target_bit_55_3_bool () Bool)
(declare-fun target_bit_56_0_bool () Bool)
(declare-fun target_bit_56_1_bool () Bool)
(declare-fun target_bit_56_2_bool () Bool)
(declare-fun target_bit_56_3_bool () Bool)
(declare-fun target_bit_57_0_bool () Bool)
(declare-fun target_bit_57_1_bool () Bool)
(declare-fun target_bit_57_2_bool () Bool)
(declare-fun target_bit_57_3_bool () Bool)
(declare-fun target_bit_58_0_bool () Bool)
(declare-fun target_bit_58_1_bool () Bool)
(declare-fun target_bit_58_2_bool () Bool)
(declare-fun target_bit_58_3_bool () Bool)
(declare-fun target_bit_59_0_bool () Bool)
(declare-fun target_bit_59_1_bool () Bool)
(declare-fun target_bit_59_2_bool () Bool)
(declare-fun target_bit_59_3_bool () Bool)
(assert
 (= (= (_ bv1 1) ((_ extract 0 0) chosen)) (= chosen_0 true)))
(assert
 (= (= (_ bv1 1) ((_ extract 1 1) chosen)) (= chosen_1 true)))
(assert
 (= (= (_ bv1 1) ((_ extract 2 2) chosen)) (= chosen_2 true)))
(assert
 (= (= (_ bv1 1) ((_ extract 3 3) chosen)) (= chosen_3 true)))
(assert
 (= (= (_ bv1 1) ((_ extract 4 4) chosen)) (= chosen_4 true)))
(assert
 (= (= (_ bv1 1) ((_ extract 5 5) chosen)) (= chosen_5 true)))
(assert
 (= (= (_ bv1 1) ((_ extract 0 0) target)) (= target_0 true)))
(assert
 (= (= (_ bv1 1) ((_ extract 1 1) target)) (= target_1 true)))
(assert
 (= (= (_ bv1 1) ((_ extract 2 2) target)) (= target_2 true)))
(assert
 (= (= (_ bv1 1) ((_ extract 3 3) target)) (= target_3 true)))
(assert
 (= (= (_ bv1 1) ((_ extract 4 4) target)) (= target_4 true)))
(assert
 (= (= (_ bv1 1) ((_ extract 5 5) target)) (= target_5 true)))
(assert
 (let ((?x284 (bvadd (bvand chosen_outcome0 target_outcome0_t0) (bvlshr (bvxor chosen_outcome0 target_outcome0_t0) (_ bv1 6)))))
 (= (_ bv0 6) ?x284)))
(assert
 (let ((?x267 (bvadd (bvand chosen_outcome1 target_outcome1_t0) (bvlshr (bvxor chosen_outcome1 target_outcome1_t0) (_ bv1 6)))))
 (= (_ bv1 6) ?x267)))
(assert
 (let ((?x263 (bvadd (bvand chosen_outcome2 target_outcome2_t0) (bvlshr (bvxor chosen_outcome2 target_outcome2_t0) (_ bv1 6)))))
 (= (_ bv2 6) ?x263)))
(assert
 (let ((?x265 (bvadd (bvand chosen_outcome3 target_outcome3_t0) (bvlshr (bvxor chosen_outcome3 target_outcome3_t0) (_ bv1 6)))))
 (= (_ bv3 6) ?x265)))
(assert
 (let ((?x250 (bvadd (bvand chosen_outcome4 target_outcome4_t0) (bvlshr (bvxor chosen_outcome4 target_outcome4_t0) (_ bv1 6)))))
 (= (_ bv4 6) ?x250)))
(assert
 (let ((?x243 (bvadd (bvand chosen_outcome5 target_outcome5_t0) (bvlshr (bvxor chosen_outcome5 target_outcome5_t0) (_ bv1 6)))))
 (= (_ bv5 6) ?x243)))
(assert
 (let ((?x242 (bvadd (bvand chosen_outcome6 target_outcome6_t0) (bvlshr (bvxor chosen_outcome6 target_outcome6_t0) (_ bv1 6)))))
 (= (_ bv6 6) ?x242)))
(assert
 (let ((?x231 (bvadd (bvand chosen_outcome7 target_outcome7_t0) (bvlshr (bvxor chosen_outcome7 target_outcome7_t0) (_ bv1 6)))))
 (= (_ bv7 6) ?x231)))
(assert
 (let ((?x221 (bvadd (bvand chosen_outcome8 target_outcome8_t0) (bvlshr (bvxor chosen_outcome8 target_outcome8_t0) (_ bv1 6)))))
 (= (_ bv8 6) ?x221)))
(assert
 (let ((?x217 (bvadd (bvand chosen_outcome9 target_outcome9_t0) (bvlshr (bvxor chosen_outcome9 target_outcome9_t0) (_ bv1 6)))))
 (= (_ bv9 6) ?x217)))
(assert
 (let ((?x198 (bvadd (bvand chosen_outcome10 target_outcome10_t0) (bvlshr (bvxor chosen_outcome10 target_outcome10_t0) (_ bv1 6)))))
 (= (_ bv10 6) ?x198)))
(assert
 (let ((?x178 (bvadd (bvand chosen_outcome11 target_outcome11_t0) (bvlshr (bvxor chosen_outcome11 target_outcome11_t0) (_ bv1 6)))))
 (= (_ bv11 6) ?x178)))
(assert
 (let ((?x75 (bvadd (bvand chosen_outcome12 target_outcome12_t0) (bvlshr (bvxor chosen_outcome12 target_outcome12_t0) (_ bv1 6)))))
 (= (_ bv12 6) ?x75)))
(assert
 (let ((?x179 (bvadd (bvand chosen_outcome13 target_outcome13_t0) (bvlshr (bvxor chosen_outcome13 target_outcome13_t0) (_ bv1 6)))))
 (= (_ bv13 6) ?x179)))
(assert
 (let ((?x191 (bvadd (bvand chosen_outcome14 target_outcome14_t0) (bvlshr (bvxor chosen_outcome14 target_outcome14_t0) (_ bv1 6)))))
 (= (_ bv14 6) ?x191)))
(assert
 (let ((?x146 (bvadd (bvand chosen_outcome15 target_outcome15_t0) (bvlshr (bvxor chosen_outcome15 target_outcome15_t0) (_ bv1 6)))))
 (= (_ bv15 6) ?x146)))
(assert
 (let ((?x168 (bvadd (bvand chosen_outcome16 target_outcome16_t0) (bvlshr (bvxor chosen_outcome16 target_outcome16_t0) (_ bv1 6)))))
 (= (_ bv16 6) ?x168)))
(assert
 (let ((?x174 (bvadd (bvand chosen_outcome17 target_outcome17_t0) (bvlshr (bvxor chosen_outcome17 target_outcome17_t0) (_ bv1 6)))))
 (= (_ bv17 6) ?x174)))
(assert
 (let ((?x155 (bvadd (bvand chosen_outcome18 target_outcome18_t0) (bvlshr (bvxor chosen_outcome18 target_outcome18_t0) (_ bv1 6)))))
 (= (_ bv18 6) ?x155)))
(assert
 (let ((?x139 (bvadd (bvand chosen_outcome19 target_outcome19_t0) (bvlshr (bvxor chosen_outcome19 target_outcome19_t0) (_ bv1 6)))))
 (= (_ bv19 6) ?x139)))
(assert
 (let ((?x92 (bvadd (bvand chosen_outcome20 target_outcome20_t0) (bvlshr (bvxor chosen_outcome20 target_outcome20_t0) (_ bv1 6)))))
 (= (_ bv20 6) ?x92)))
(assert
 (let ((?x149 (bvadd (bvand chosen_outcome21 target_outcome21_t0) (bvlshr (bvxor chosen_outcome21 target_outcome21_t0) (_ bv1 6)))))
 (= (_ bv21 6) ?x149)))
(assert
 (let ((?x171 (bvadd (bvand chosen_outcome22 target_outcome22_t0) (bvlshr (bvxor chosen_outcome22 target_outcome22_t0) (_ bv1 6)))))
 (= (_ bv22 6) ?x171)))
(assert
 (let ((?x187 (bvadd (bvand chosen_outcome23 target_outcome23_t0) (bvlshr (bvxor chosen_outcome23 target_outcome23_t0) (_ bv1 6)))))
 (= (_ bv23 6) ?x187)))
(assert
 (let ((?x288 (bvadd (bvand chosen_outcome24 target_outcome24_t0) (bvlshr (bvxor chosen_outcome24 target_outcome24_t0) (_ bv1 6)))))
 (= (_ bv24 6) ?x288)))
(assert
 (let ((?x301 (bvadd (bvand chosen_outcome25 target_outcome25_t0) (bvlshr (bvxor chosen_outcome25 target_outcome25_t0) (_ bv1 6)))))
 (= (_ bv25 6) ?x301)))
(assert
 (let ((?x309 (bvadd (bvand chosen_outcome26 target_outcome26_t0) (bvlshr (bvxor chosen_outcome26 target_outcome26_t0) (_ bv1 6)))))
 (= (_ bv26 6) ?x309)))
(assert
 (let ((?x316 (bvadd (bvand chosen_outcome27 target_outcome27_t0) (bvlshr (bvxor chosen_outcome27 target_outcome27_t0) (_ bv1 6)))))
 (= (_ bv27 6) ?x316)))
(assert
 (let ((?x324 (bvadd (bvand chosen_outcome28 target_outcome28_t0) (bvlshr (bvxor chosen_outcome28 target_outcome28_t0) (_ bv1 6)))))
 (= (_ bv28 6) ?x324)))
(assert
 (let ((?x332 (bvadd (bvand chosen_outcome29 target_outcome29_t0) (bvlshr (bvxor chosen_outcome29 target_outcome29_t0) (_ bv1 6)))))
 (= (_ bv29 6) ?x332)))
(assert
 (let ((?x340 (bvadd (bvand chosen_outcome30 target_outcome30_t0) (bvlshr (bvxor chosen_outcome30 target_outcome30_t0) (_ bv1 6)))))
 (= (_ bv30 6) ?x340)))
(assert
 (let ((?x348 (bvadd (bvand chosen_outcome31 target_outcome31_t0) (bvlshr (bvxor chosen_outcome31 target_outcome31_t0) (_ bv1 6)))))
 (= (_ bv31 6) ?x348)))
(assert
 (let ((?x356 (bvadd (bvand chosen_outcome32 target_outcome32_t0) (bvlshr (bvxor chosen_outcome32 target_outcome32_t0) (_ bv1 6)))))
 (= (_ bv32 6) ?x356)))
(assert
 (let ((?x364 (bvadd (bvand chosen_outcome33 target_outcome33_t0) (bvlshr (bvxor chosen_outcome33 target_outcome33_t0) (_ bv1 6)))))
 (= (_ bv33 6) ?x364)))
(assert
 (let ((?x372 (bvadd (bvand chosen_outcome34 target_outcome34_t0) (bvlshr (bvxor chosen_outcome34 target_outcome34_t0) (_ bv1 6)))))
 (= (_ bv34 6) ?x372)))
(assert
 (let ((?x380 (bvadd (bvand chosen_outcome35 target_outcome35_t0) (bvlshr (bvxor chosen_outcome35 target_outcome35_t0) (_ bv1 6)))))
 (= (_ bv35 6) ?x380)))
(assert
 (let ((?x388 (bvadd (bvand chosen_outcome36 target_outcome36_t0) (bvlshr (bvxor chosen_outcome36 target_outcome36_t0) (_ bv1 6)))))
 (= (_ bv36 6) ?x388)))
(assert
 (let ((?x396 (bvadd (bvand chosen_outcome37 target_outcome37_t0) (bvlshr (bvxor chosen_outcome37 target_outcome37_t0) (_ bv1 6)))))
 (= (_ bv37 6) ?x396)))
(assert
 (let ((?x404 (bvadd (bvand chosen_outcome38 target_outcome38_t0) (bvlshr (bvxor chosen_outcome38 target_outcome38_t0) (_ bv1 6)))))
 (= (_ bv38 6) ?x404)))
(assert
 (let ((?x412 (bvadd (bvand chosen_outcome39 target_outcome39_t0) (bvlshr (bvxor chosen_outcome39 target_outcome39_t0) (_ bv1 6)))))
 (= (_ bv39 6) ?x412)))
(assert
 (let ((?x420 (bvadd (bvand chosen_outcome40 target_outcome40_t0) (bvlshr (bvxor chosen_outcome40 target_outcome40_t0) (_ bv1 6)))))
 (= (_ bv40 6) ?x420)))
(assert
 (let ((?x428 (bvadd (bvand chosen_outcome41 target_outcome41_t0) (bvlshr (bvxor chosen_outcome41 target_outcome41_t0) (_ bv1 6)))))
 (= (_ bv41 6) ?x428)))
(assert
 (let ((?x436 (bvadd (bvand chosen_outcome42 target_outcome42_t0) (bvlshr (bvxor chosen_outcome42 target_outcome42_t0) (_ bv1 6)))))
 (= (_ bv42 6) ?x436)))
(assert
 (let ((?x444 (bvadd (bvand chosen_outcome43 target_outcome43_t0) (bvlshr (bvxor chosen_outcome43 target_outcome43_t0) (_ bv1 6)))))
 (= (_ bv43 6) ?x444)))
(assert
 (let ((?x452 (bvadd (bvand chosen_outcome44 target_outcome44_t0) (bvlshr (bvxor chosen_outcome44 target_outcome44_t0) (_ bv1 6)))))
 (= (_ bv44 6) ?x452)))
(assert
 (let ((?x460 (bvadd (bvand chosen_outcome45 target_outcome45_t0) (bvlshr (bvxor chosen_outcome45 target_outcome45_t0) (_ bv1 6)))))
 (= (_ bv45 6) ?x460)))
(assert
 (let ((?x468 (bvadd (bvand chosen_outcome46 target_outcome46_t0) (bvlshr (bvxor chosen_outcome46 target_outcome46_t0) (_ bv1 6)))))
 (= (_ bv46 6) ?x468)))
(assert
 (let ((?x476 (bvadd (bvand chosen_outcome47 target_outcome47_t0) (bvlshr (bvxor chosen_outcome47 target_outcome47_t0) (_ bv1 6)))))
 (= (_ bv47 6) ?x476)))
(assert
 (let ((?x484 (bvadd (bvand chosen_outcome48 target_outcome48_t0) (bvlshr (bvxor chosen_outcome48 target_outcome48_t0) (_ bv1 6)))))
 (= (_ bv48 6) ?x484)))
(assert
 (let ((?x492 (bvadd (bvand chosen_outcome49 target_outcome49_t0) (bvlshr (bvxor chosen_outcome49 target_outcome49_t0) (_ bv1 6)))))
 (= (_ bv49 6) ?x492)))
(assert
 (let ((?x500 (bvadd (bvand chosen_outcome50 target_outcome50_t0) (bvlshr (bvxor chosen_outcome50 target_outcome50_t0) (_ bv1 6)))))
 (= (_ bv50 6) ?x500)))
(assert
 (let ((?x508 (bvadd (bvand chosen_outcome51 target_outcome51_t0) (bvlshr (bvxor chosen_outcome51 target_outcome51_t0) (_ bv1 6)))))
 (= (_ bv51 6) ?x508)))
(assert
 (let ((?x516 (bvadd (bvand chosen_outcome52 target_outcome52_t0) (bvlshr (bvxor chosen_outcome52 target_outcome52_t0) (_ bv1 6)))))
 (= (_ bv52 6) ?x516)))
(assert
 (let ((?x524 (bvadd (bvand chosen_outcome53 target_outcome53_t0) (bvlshr (bvxor chosen_outcome53 target_outcome53_t0) (_ bv1 6)))))
 (= (_ bv53 6) ?x524)))
(assert
 (let ((?x532 (bvadd (bvand chosen_outcome54 target_outcome54_t0) (bvlshr (bvxor chosen_outcome54 target_outcome54_t0) (_ bv1 6)))))
 (= (_ bv54 6) ?x532)))
(assert
 (let ((?x540 (bvadd (bvand chosen_outcome55 target_outcome55_t0) (bvlshr (bvxor chosen_outcome55 target_outcome55_t0) (_ bv1 6)))))
 (= (_ bv55 6) ?x540)))
(assert
 (let ((?x548 (bvadd (bvand chosen_outcome56 target_outcome56_t0) (bvlshr (bvxor chosen_outcome56 target_outcome56_t0) (_ bv1 6)))))
 (= (_ bv56 6) ?x548)))
(assert
 (let ((?x556 (bvadd (bvand chosen_outcome57 target_outcome57_t0) (bvlshr (bvxor chosen_outcome57 target_outcome57_t0) (_ bv1 6)))))
 (= (_ bv57 6) ?x556)))
(assert
 (let ((?x564 (bvadd (bvand chosen_outcome58 target_outcome58_t0) (bvlshr (bvxor chosen_outcome58 target_outcome58_t0) (_ bv1 6)))))
 (= (_ bv58 6) ?x564)))
(assert
 (let ((?x572 (bvadd (bvand chosen_outcome59 target_outcome59_t0) (bvlshr (bvxor chosen_outcome59 target_outcome59_t0) (_ bv1 6)))))
 (= (_ bv59 6) ?x572)))
(assert
 (let ((?x580 (bvadd (bvand chosen_outcome60 target_outcome60_t0) (bvlshr (bvxor chosen_outcome60 target_outcome60_t0) (_ bv1 6)))))
 (= (_ bv60 6) ?x580)))
(assert
 (let ((?x588 (bvadd (bvand chosen_outcome61 target_outcome61_t0) (bvlshr (bvxor chosen_outcome61 target_outcome61_t0) (_ bv1 6)))))
 (= (_ bv61 6) ?x588)))
(assert
 (let ((?x596 (bvadd (bvand chosen_outcome62 target_outcome62_t0) (bvlshr (bvxor chosen_outcome62 target_outcome62_t0) (_ bv1 6)))))
 (= (_ bv62 6) ?x596)))
(assert
 (let ((?x604 (bvadd (bvand chosen_outcome63 target_outcome63_t0) (bvlshr (bvxor chosen_outcome63 target_outcome63_t0) (_ bv1 6)))))
 (= (_ bv63 6) ?x604)))
(assert
 (= (_ bv43 6) (bvadd (bvand (_ bv31 6) target) (bvlshr (bvxor (_ bv31 6) target) (_ bv1 6)))))
(assert
 (not (= target target_outcome15_t0)))
(assert
 (let ((?x20228 (bvadd (bvand (_ bv31 6) target_outcome47_t0) (bvlshr (bvxor (_ bv31 6) target_outcome47_t0) (_ bv1 6)))))
 (= (_ bv43 6) ?x20228)))
(assert
 (not (= target target_outcome16_t0)))
(assert
 (let ((?x5925 (bvadd (bvand (_ bv31 6) target_outcome46_t0) (bvlshr (bvxor (_ bv31 6) target_outcome46_t0) (_ bv1 6)))))
 (= (_ bv43 6) ?x5925)))
(assert
 (not (= target target_outcome17_t0)))
(assert
 (let ((?x12424 (bvadd (bvand (_ bv31 6) target_outcome45_t0) (bvlshr (bvxor (_ bv31 6) target_outcome45_t0) (_ bv1 6)))))
 (= (_ bv43 6) ?x12424)))
(assert
 (not (= target target_outcome18_t0)))
(assert
 (let ((?x8656 (bvadd (bvand (_ bv31 6) target_outcome44_t0) (bvlshr (bvxor (_ bv31 6) target_outcome44_t0) (_ bv1 6)))))
 (= (_ bv43 6) ?x8656)))
(assert
 (not (= target target_outcome19_t0)))
(assert
 (not (= target target_outcome20_t0)))
(assert
 (let ((?x15751 (bvadd (bvand (_ bv31 6) target_outcome42_t0) (bvlshr (bvxor (_ bv31 6) target_outcome42_t0) (_ bv1 6)))))
 (= (_ bv43 6) ?x15751)))
(assert
 (not (= target target_outcome21_t0)))
(assert
 (let ((?x10025 (bvadd (bvand (_ bv31 6) target_outcome41_t0) (bvlshr (bvxor (_ bv31 6) target_outcome41_t0) (_ bv1 6)))))
 (= (_ bv43 6) ?x10025)))
(assert
 (not (= target target_outcome22_t0)))
(assert
 (let ((?x6134 (bvadd (bvand (_ bv31 6) target_outcome40_t0) (bvlshr (bvxor (_ bv31 6) target_outcome40_t0) (_ bv1 6)))))
 (= (_ bv43 6) ?x6134)))
(assert
 (not (= target target_outcome23_t0)))
(assert
 (let ((?x5953 (bvadd (bvand (_ bv31 6) target_outcome39_t0) (bvlshr (bvxor (_ bv31 6) target_outcome39_t0) (_ bv1 6)))))
 (= (_ bv43 6) ?x5953)))
(assert
 (not (= target target_outcome24_t0)))
(assert
 (let ((?x6380 (bvadd (bvand (_ bv31 6) target_outcome38_t0) (bvlshr (bvxor (_ bv31 6) target_outcome38_t0) (_ bv1 6)))))
 (= (_ bv43 6) ?x6380)))
(assert
 (not (= target target_outcome25_t0)))
(assert
 (let ((?x12826 (bvadd (bvand (_ bv31 6) target_outcome37_t0) (bvlshr (bvxor (_ bv31 6) target_outcome37_t0) (_ bv1 6)))))
 (= (_ bv43 6) ?x12826)))
(assert
 (not (= target target_outcome26_t0)))
(assert
 (let ((?x18229 (bvadd (bvand (_ bv31 6) target_outcome36_t0) (bvlshr (bvxor (_ bv31 6) target_outcome36_t0) (_ bv1 6)))))
 (= (_ bv43 6) ?x18229)))
(assert
 (let ((?x9446 (bvadd (bvand (_ bv31 6) target_outcome27_t0) (bvlshr (bvxor (_ bv31 6) target_outcome27_t0) (_ bv1 6)))))
 (= (_ bv43 6) ?x9446)))
(assert
 (let ((?x5328 (bvadd (bvand (_ bv31 6) target_outcome35_t0) (bvlshr (bvxor (_ bv31 6) target_outcome35_t0) (_ bv1 6)))))
 (= (_ bv43 6) ?x5328)))
(assert
 (let ((?x12395 (bvadd (bvand (_ bv31 6) target_outcome28_t0) (bvlshr (bvxor (_ bv31 6) target_outcome28_t0) (_ bv1 6)))))
 (= (_ bv43 6) ?x12395)))
(assert
 (let ((?x3394 (bvadd (bvand (_ bv31 6) target_outcome34_t0) (bvlshr (bvxor (_ bv31 6) target_outcome34_t0) (_ bv1 6)))))
 (= (_ bv43 6) ?x3394)))
(assert
 (let ((?x1872 (bvadd (bvand (_ bv31 6) target_outcome29_t0) (bvlshr (bvxor (_ bv31 6) target_outcome29_t0) (_ bv1 6)))))
 (= (_ bv43 6) ?x1872)))
(assert
 (let ((?x19150 (bvadd (bvand (_ bv31 6) target_outcome33_t0) (bvlshr (bvxor (_ bv31 6) target_outcome33_t0) (_ bv1 6)))))
 (= (_ bv43 6) ?x19150)))
(assert
 (let ((?x12460 (bvadd (bvand (_ bv31 6) target_outcome30_t0) (bvlshr (bvxor (_ bv31 6) target_outcome30_t0) (_ bv1 6)))))
 (= (_ bv43 6) ?x12460)))
(assert
 (let ((?x3207 (bvadd (bvand (_ bv31 6) target_outcome32_t0) (bvlshr (bvxor (_ bv31 6) target_outcome32_t0) (_ bv1 6)))))
 (= (_ bv43 6) ?x3207)))
(assert
 (let ((?x6513 (bvadd (bvand (_ bv31 6) target_outcome31_t0) (bvlshr (bvxor (_ bv31 6) target_outcome31_t0) (_ bv1 6)))))
 (= (_ bv43 6) ?x6513)))
(assert
 (not (= (_ bv31 6) chosen)))
(assert
 (= chosen chosen_outcome48))
(assert
 (= chosen chosen_outcome49))
(assert
 (= chosen chosen_outcome50))
(assert
 (= chosen chosen_outcome51))
(assert
 (= chosen chosen_outcome52))
(assert
 (= chosen chosen_outcome53))
(assert
 (= chosen chosen_outcome54))
(assert
 (= chosen chosen_outcome55))
(assert
 (= chosen chosen_outcome56))
(assert
 (= chosen chosen_outcome57))
(assert
 (= chosen chosen_outcome58))
(assert
 (= chosen chosen_outcome59))
(assert
 (= (= (_ bv1 1) ((_ extract 0 0) target_outcome48_t0)) (= target_bit_48_0_bool true)))
(assert
 (= (= (_ bv1 1) ((_ extract 1 1) target_outcome48_t0)) (= target_bit_48_1_bool true)))
(assert
 (= (= (_ bv1 1) ((_ extract 2 2) target_outcome48_t0)) (= target_bit_48_2_bool true)))
(assert
 (= (= (_ bv1 1) ((_ extract 3 3) target_outcome48_t0)) (= target_bit_48_3_bool true)))
(assert
 (= (= (_ bv1 1) ((_ extract 0 0) target_outcome49_t0)) (= target_bit_49_0_bool true)))
(assert
 (= (= (_ bv1 1) ((_ extract 1 1) target_outcome49_t0)) (= target_bit_49_1_bool true)))
(assert
 (= (= (_ bv1 1) ((_ extract 2 2) target_outcome49_t0)) (= target_bit_49_2_bool true)))
(assert
 (= (= (_ bv1 1) ((_ extract 3 3) target_outcome49_t0)) (= target_bit_49_3_bool true)))
(assert
 (= (= (_ bv1 1) ((_ extract 0 0) target_outcome50_t0)) (= target_bit_50_0_bool true)))
(assert
 (= (= (_ bv1 1) ((_ extract 1 1) target_outcome50_t0)) (= target_bit_50_1_bool true)))
(assert
 (= (= (_ bv1 1) ((_ extract 2 2) target_outcome50_t0)) (= target_bit_50_2_bool true)))
(assert
 (= (= (_ bv1 1) ((_ extract 3 3) target_outcome50_t0)) (= target_bit_50_3_bool true)))
(assert
 (= (= (_ bv1 1) ((_ extract 0 0) target_outcome51_t0)) (= target_bit_51_0_bool true)))
(assert
 (= (= (_ bv1 1) ((_ extract 1 1) target_outcome51_t0)) (= target_bit_51_1_bool true)))
(assert
 (= (= (_ bv1 1) ((_ extract 2 2) target_outcome51_t0)) (= target_bit_51_2_bool true)))
(assert
 (= (= (_ bv1 1) ((_ extract 3 3) target_outcome51_t0)) (= target_bit_51_3_bool true)))
(assert
 (= (= (_ bv1 1) ((_ extract 0 0) target_outcome52_t0)) (= target_bit_52_0_bool true)))
(assert
 (= (= (_ bv1 1) ((_ extract 1 1) target_outcome52_t0)) (= target_bit_52_1_bool true)))
(assert
 (= (= (_ bv1 1) ((_ extract 2 2) target_outcome52_t0)) (= target_bit_52_2_bool true)))
(assert
 (= (= (_ bv1 1) ((_ extract 3 3) target_outcome52_t0)) (= target_bit_52_3_bool true)))
(assert
 (= (= (_ bv1 1) ((_ extract 0 0) target_outcome53_t0)) (= target_bit_53_0_bool true)))
(assert
 (= (= (_ bv1 1) ((_ extract 1 1) target_outcome53_t0)) (= target_bit_53_1_bool true)))
(assert
 (= (= (_ bv1 1) ((_ extract 2 2) target_outcome53_t0)) (= target_bit_53_2_bool true)))
(assert
 (= (= (_ bv1 1) ((_ extract 3 3) target_outcome53_t0)) (= target_bit_53_3_bool true)))
(assert
 (= (= (_ bv1 1) ((_ extract 0 0) target_outcome54_t0)) (= target_bit_54_0_bool true)))
(assert
 (= (= (_ bv1 1) ((_ extract 1 1) target_outcome54_t0)) (= target_bit_54_1_bool true)))
(assert
 (= (= (_ bv1 1) ((_ extract 2 2) target_outcome54_t0)) (= target_bit_54_2_bool true)))
(assert
 (= (= (_ bv1 1) ((_ extract 3 3) target_outcome54_t0)) (= target_bit_54_3_bool true)))
(assert
 (= (= (_ bv1 1) ((_ extract 0 0) target_outcome55_t0)) (= target_bit_55_0_bool true)))
(assert
 (= (= (_ bv1 1) ((_ extract 1 1) target_outcome55_t0)) (= target_bit_55_1_bool true)))
(assert
 (= (= (_ bv1 1) ((_ extract 2 2) target_outcome55_t0)) (= target_bit_55_2_bool true)))
(assert
 (= (= (_ bv1 1) ((_ extract 3 3) target_outcome55_t0)) (= target_bit_55_3_bool true)))
(assert
 (= (= (_ bv1 1) ((_ extract 0 0) target_outcome56_t0)) (= target_bit_56_0_bool true)))
(assert
 (= (= (_ bv1 1) ((_ extract 1 1) target_outcome56_t0)) (= target_bit_56_1_bool true)))
(assert
 (= (= (_ bv1 1) ((_ extract 2 2) target_outcome56_t0)) (= target_bit_56_2_bool true)))
(assert
 (= (= (_ bv1 1) ((_ extract 3 3) target_outcome56_t0)) (= target_bit_56_3_bool true)))
(assert
 (= (= (_ bv1 1) ((_ extract 0 0) target_outcome57_t0)) (= target_bit_57_0_bool true)))
(assert
 (= (= (_ bv1 1) ((_ extract 1 1) target_outcome57_t0)) (= target_bit_57_1_bool true)))
(assert
 (= (= (_ bv1 1) ((_ extract 2 2) target_outcome57_t0)) (= target_bit_57_2_bool true)))
(assert
 (= (= (_ bv1 1) ((_ extract 3 3) target_outcome57_t0)) (= target_bit_57_3_bool true)))
(assert
 (= (= (_ bv1 1) ((_ extract 0 0) target_outcome58_t0)) (= target_bit_58_0_bool true)))
(assert
 (= (= (_ bv1 1) ((_ extract 1 1) target_outcome58_t0)) (= target_bit_58_1_bool true)))
(assert
 (= (= (_ bv1 1) ((_ extract 2 2) target_outcome58_t0)) (= target_bit_58_2_bool true)))
(assert
 (= (= (_ bv1 1) ((_ extract 3 3) target_outcome58_t0)) (= target_bit_58_3_bool true)))
(assert
 (= (= (_ bv1 1) ((_ extract 0 0) target_outcome59_t0)) (= target_bit_59_0_bool true)))
(assert
 (= (= (_ bv1 1) ((_ extract 1 1) target_outcome59_t0)) (= target_bit_59_1_bool true)))
(assert
 (= (= (_ bv1 1) ((_ extract 2 2) target_outcome59_t0)) (= target_bit_59_2_bool true)))
(assert
 (= (= (_ bv1 1) ((_ extract 3 3) target_outcome59_t0)) (= target_bit_59_3_bool true)))
(check-sat)
(exit)